
******************************************************************************
This program contains Ipopt, a library for large-scale nonlinear optimization.
 Ipopt is released as open source code under the Eclipse Public License (EPL).
         For more information visit http://projects.coin-or.org/Ipopt
******************************************************************************

This is Ipopt version 3.12.6, running with linear solver ma57.

Number of nonzeros in equality constraint Jacobian...:        0
Number of nonzeros in inequality constraint Jacobian.:        6
Number of nonzeros in Lagrangian Hessian.............:        3

Total number of variables............................:        2
                     variables with only lower bounds:        2
                variables with lower and upper bounds:        0
                     variables with only upper bounds:        0
Total number of equality constraints.................:        0
Total number of inequality constraints...............:        3
        inequality constraints with only lower bounds:        3
   inequality constraints with lower and upper bounds:        0
        inequality constraints with only upper bounds:        0

iter    objective    inf_pr   inf_du lg(mu)  ||d||  lg(rg) alpha_du alpha_pr  ls
   0 -1.3364591e-02 0.00e+00 6.80e-01  -1.0 0.00e+00    -  0.00e+00 0.00e+00   0
   1 -1.4291992e-02 0.00e+00 4.96e-02  -1.0 1.40e-01    -  9.52e-01 1.00e+00f  1
   2 -1.0435107e-01 0.00e+00 2.52e-01  -1.7 1.38e+00    -  6.31e-01 1.00e+00f  1
   3 -1.2011889e-01 0.00e+00 6.62e-02  -1.7 6.62e-02   0.0 1.00e+00 1.00e+00f  1
   4 -1.9986779e-01 0.00e+00 8.76e-02  -2.5 2.64e-01  -0.5 9.41e-01 9.70e-01f  1
   5 -5.7692922e-01 0.00e+00 1.52e-01  -2.5 1.37e+00  -1.0 1.00e+00 1.00e+00f  1
   6 -8.1003181e-01 0.00e+00 1.92e-01  -2.5 6.88e-01  -0.5 1.00e+00 7.72e-01f  1
   7 -9.9908319e-01 0.00e+00 1.30e+00  -2.5 3.89e+00  -1.0 1.00e+00 1.02e-01f  1
   8 -9.8855717e-01 0.00e+00 1.37e-01  -2.5 4.03e-02    -  1.00e+00 5.00e-01f  2
   9 -9.9436169e-01 0.00e+00 1.27e-05  -2.5 1.57e-02    -  1.00e+00 1.00e+00f  1
iter    objective    inf_pr   inf_du lg(mu)  ||d||  lg(rg) alpha_du alpha_pr  ls
  10 -9.9971125e-01 0.00e+00 5.53e-06  -3.8 5.26e-03    -  1.00e+00 1.00e+00f  1
  11 -9.9999644e-01 0.00e+00 1.57e-08  -5.7 2.93e-04    -  1.00e+00 1.00e+00f  1
  12 -1.0000001e+00 0.00e+00 2.59e-12  -8.6 3.67e-06    -  1.00e+00 1.00e+00f  1

Number of Iterations....: 12

                                   (scaled)                 (unscaled)
Objective...............:  -1.0000000913459706e+00   -1.0000000913459706e+00
Dual infeasibility......:   2.5894008782159021e-12    2.5894008782159021e-12
Constraint violation....:   0.0000000000000000e+00    0.0000000000000000e+00
Complementarity.........:   2.5058908964523619e-09    2.5058908964523619e-09
Overall NLP error.......:   2.5058908964523619e-09    2.5058908964523619e-09


Number of objective function evaluations             = 15
Number of objective gradient evaluations             = 13
Number of equality constraint evaluations            = 0
Number of inequality constraint evaluations          = 15
Number of equality constraint Jacobian evaluations   = 0
Number of inequality constraint Jacobian evaluations = 13
Number of Lagrangian Hessian evaluations             = 12
Total CPU secs in IPOPT (w/o function evaluations)   =      0.003
Total CPU secs in NLP function evaluations           =      0.000

EXIT: Optimal Solution Found.

************************ CUTEst statistics ************************


 Package used            :  IPOPT
 Problem                 :  HS24      
 # variables             =               2
 # constraints           =               3
 # objective functions   =        0.2900000E+02
 # objective gradients   =        0.1400000E+02
 # objective Hessians    =        0.1300000E+02
 # Hessian-vector prdct  =        0.0000000E+00
 # constraints functions =        0.3000000E+02
 # constraints gradients =        0.1500000E+02
 # constraints Hessians  =        0.1300000E+02
 Exit code               =               0
 Final f                 =  -0.1000000E+01
 Set up time             =            0.00 seconds
 Solve time              =            0.01 seconds


******************************************************************

System Time =       0.0040000002 s.
